
Gurobi 9.1.2 (win64, Java) logging started Sat Nov  6 21:16:54 2021

Academic license - for non-commercial use only - expires 2022-10-30
Gurobi Optimizer version 9.1.2 build v9.1.2rc0 (win64)
Thread count: 6 physical cores, 12 logical processors, using up to 12 threads
Optimize a model with 60 rows, 800 columns and 1600 nonzeros
Model fingerprint: 0x5c5bc109
Variable types: 0 continuous, 800 integer (800 binary)
Coefficient statistics:
  Matrix range     [1e+00, 1e+03]
  Objective range  [4e+02, 1e+03]
  Bounds range     [1e+00, 1e+00]
  RHS range        [1e+00, 9e+02]
Found heuristic solution: objective 16317.000000
Presolve removed 2 rows and 402 columns
Presolve time: 0.03s
Presolved: 58 rows, 398 columns, 796 nonzeros
Variable types: 0 continuous, 398 integer (398 binary)
Presolved: 58 rows, 398 columns, 796 nonzeros


Root relaxation: objective 2.090591e+04, 201 iterations, 0.01 seconds

    Nodes    |    Current Node    |     Objective Bounds      |     Work
 Expl Unexpl |  Obj  Depth IntInf | Incumbent    BestBd   Gap | It/Node Time

     0     0 20905.9129    0   17 16317.0000 20905.9129  28.1%     -    0s
H    0     0                    19160.000000 20905.9129  9.11%     -    0s
H    0     0                    19520.000000 20905.9129  7.10%     -    0s
H    0     0                    19528.000000 20905.9129  7.06%     -    0s
H    0     0                    19860.000000 20895.6911  5.21%     -    0s
     0     0 20500.1668    0   25 19860.0000 20500.1668  3.22%     -    0s
     0     0 20420.3152    0   22 19860.0000 20420.3152  2.82%     -    0s
     0     0 20415.8959    0   16 19860.0000 20415.8959  2.80%     -    0s
     0     0 20415.1003    0   20 19860.0000 20415.1003  2.80%     -    0s
H    0     0                    19985.000000 20415.1003  2.15%     -    0s
     0     0 20289.5543    0   34 19985.0000 20289.5543  1.52%     -    0s
     0     0 20289.2727    0   33 19985.0000 20289.2727  1.52%     -    0s
     0     0 20282.8478    0   21 19985.0000 20282.8478  1.49%     -    0s
     0     0 20276.5201    0   23 19985.0000 20276.5201  1.46%     -    0s
     0     0 20276.5201    0   27 19985.0000 20276.5201  1.46%     -    1s
     0     0 20202.9779    0   25 19985.0000 20202.9779  1.09%     -    1s
     0     0 20194.0000    0   19 19985.0000 20194.0000  1.05%     -    1s
     0     0 20192.7500    0   18 19985.0000 20192.7500  1.04%     -    1s
     0     0 20187.4600    0   21 19985.0000 20187.4600  1.01%     -    1s
     0     0 20187.4600    0   13 19985.0000 20187.4600  1.01%     -    1s
     0     0 20187.0000    0   13 19985.0000 20187.0000  1.01%     -    1s
     0     0 20187.0000    0    9 19985.0000 20187.0000  1.01%     -    1s
     0     0 20185.0000    0    5 19985.0000 20185.0000  1.00%     -    1s
     0     0 20185.0000    0    5 19985.0000 20185.0000  1.00%     -    1s
     0     0 20185.0000    0   16 19985.0000 20185.0000  1.00%     -    1s
     0     0 20185.0000    0   11 19985.0000 20185.0000  1.00%     -    1s
     0     0 20185.0000    0    7 19985.0000 20185.0000  1.00%     -    1s
H    0     0                    19997.000000 20185.0000  0.94%     -    1s
     0     0 20185.0000    0    5 19997.0000 20185.0000  0.94%     -    1s
     0     0 20178.0000    0    7 19997.0000 20178.0000  0.91%     -    2s
     0     0 20169.0000    0    9 19997.0000 20169.0000  0.86%     -    2s
     0     0 20168.6690    0   15 19997.0000 20168.6690  0.86%     -    2s
     0     0     cutoff    0      19997.0000 19997.0000  0.00%     -    2s

Cutting planes:
  Gomory: 10
  Cover: 9
  Clique: 1
  MIR: 4
  StrongCG: 2
  RLT: 1

Explored 1 nodes (1186 simplex iterations) in 2.26 seconds
Thread count was 12 (of 12 available processors)

Solution count 8: 19997 19985 19860 ... 16317

Optimal solution found (tolerance 1.00e-04)
Best objective 1.999700000000e+04, best bound 1.999700000000e+04, gap 0.0000%
